(set-logic ALL)
(declare-const BAV1 Bool)
(declare-const BAV2 Bool)
(declare-const BAV3 Bool)
(declare-const BAV4 Bool)
(declare-const GEN8 Real)
(declare-const GEN7 Int)
(declare-const GEN6 Real)
(declare-const GEN5 Int)
(declare-const GEN4 Real)
(declare-const GEN3 Int)
(declare-const GEN2 Real)
(declare-const GEN1 Int)
(declare-fun x () Real)
(assert (> (sin GEN1) GEN2))
(assert (< (sin GEN3) GEN4))
(assert (< (- x (sin GEN5)) GEN6))
(assert (< (- (sin GEN7) x) GEN8))
(assert (= BAV1 (> (sin GEN1) GEN2)))
(assert (= BAV2 (< (sin GEN3) GEN4)))
(assert (= BAV3 (< (- x (sin GEN5)) GEN6)))
(assert (= BAV4 (< (- (sin GEN7) x) GEN8)))
(check-sat)
(get-model)